71
0 6 48 43 70 41 40 52 14 66 
57 44 2 58 26 4 61 35 46 67 
69 12 30 65 51 54 7 15 36 45 
68 47 50 21 16 20 53 33 10 23 
60 56 5 13 62 25 49 55 24 11 
9 64 22 28 63 34 3 8 39 42 
32 17 38 18 31 59 27 19 1 29 
37 
